p cnf 452 1569
1 2 3 4 0
-1 -2 0
-1 -3 0
-1 -4 0
-2 -3 0
-2 -4 0
-3 -4 0
5 -6 -7 0
6 -5 -7 0
-5 -6 7 0
6 5 7 0
-1 -7 0
6 -5 -8 0
5 -6 -8 0
8 -6 -5 0
8 6 5 0
-2 8 0
-6 9 0
-5 9 0
6 5 -9 0
6 -9 -10 0
-6 9 -10 0
-6 -9 10 0
6 9 10 0
-3 10 0
5 11 0
6 11 0
-5 -6 -11 0
-6 11 -12 0
6 -11 -12 0
12 -11 -6 0
6 11 12 0
-4 -12 0
13 -14 -15 0
14 -13 -15 0
-13 -14 15 0
14 13 15 0
-1 -15 0
14 -16 -17 0
16 -14 -17 0
17 -14 -16 0
17 14 16 0
-2 17 0
-5 18 0
-13 18 0
-16 18 0
5 13 16 -18 0
14 -18 -19 0
-14 18 -19 0
-14 -18 19 0
14 18 19 0
-3 19 0
5 20 0
13 20 0
16 20 0
-5 -13 -16 -20 0
-14 20 -21 0
14 -20 -21 0
21 -20 -14 0
14 20 21 0
-4 -21 0
16 -22 -23 0
22 -16 -23 0
-16 -22 23 0
16 22 23 0
-1 -23 0
-5 22 -24 0
5 -22 -24 0
24 -22 -5 0
24 22 5 0
-2 24 0
-5 25 0
-16 25 0
5 16 -25 0
22 -25 -26 0
-22 25 -26 0
-22 -25 26 0
22 25 26 0
-3 26 0
5 27 0
16 27 0
-5 -16 -27 0
-22 27 -28 0
22 -27 -28 0
28 -27 -22 0
22 27 28 0
-4 -28 0
29 -30 -31 0
30 -29 -31 0
-29 -30 31 0
30 29 31 0
-1 -31 0
30 -32 -33 0
32 -30 -33 0
33 -30 -32 0
33 30 32 0
-2 33 0
-29 34 0
-32 34 0
-35 34 0
29 32 35 -34 0
30 -34 -36 0
-30 34 -36 0
-30 -34 36 0
30 34 36 0
-3 36 0
29 37 0
32 37 0
35 37 0
-29 -32 -35 -37 0
-30 37 -38 0
30 -37 -38 0
38 -37 -30 0
30 37 38 0
-4 -38 0
32 -39 -40 0
39 -32 -40 0
-32 -39 40 0
32 39 40 0
-1 -40 0
39 -35 -41 0
35 -39 -41 0
41 -39 -35 0
41 39 35 0
-2 41 0
39 -34 -42 0
34 -39 -42 0
-34 -39 42 0
39 34 42 0
-3 42 0
37 -39 -43 0
39 -37 -43 0
43 -37 -39 0
39 37 43 0
-4 -43 0
35 -44 -45 0
44 -35 -45 0
-35 -44 45 0
35 44 45 0
-1 -45 0
-29 44 -46 0
29 -44 -46 0
46 -44 -29 0
46 44 29 0
-2 46 0
-30 47 0
-35 47 0
30 35 -47 0
44 -47 -48 0
-44 47 -48 0
-44 -47 48 0
44 47 48 0
-3 48 0
35 49 0
30 49 0
-35 -30 -49 0
-44 49 -50 0
44 -49 -50 0
50 -49 -44 0
44 49 50 0
-4 -50 0
51 -52 -53 0
52 -51 -53 0
-51 -52 53 0
52 51 53 0
-1 -53 0
-35 52 -54 0
35 -52 -54 0
54 -52 -35 0
54 52 35 0
-2 54 0
-29 55 0
-32 55 0
-35 55 0
-51 55 0
29 32 35 51 -55 0
52 -55 -56 0
-52 55 -56 0
-52 -55 56 0
52 55 56 0
-3 56 0
29 57 0
32 57 0
35 57 0
51 57 0
-58 0
-52 57 -59 0
52 -57 -59 0
59 -57 -52 0
52 57 59 0
-4 -59 0
60 -61 -62 0
61 -60 -62 0
-60 -61 62 0
61 60 62 0
-1 -62 0
61 -63 -64 0
63 -61 -64 0
64 -61 -63 0
64 61 63 0
-2 64 0
-60 65 0
-63 65 0
-66 65 0
-67 65 0
60 63 66 67 -65 0
61 -65 -68 0
-61 65 -68 0
-61 -65 68 0
61 65 68 0
-3 68 0
60 69 0
63 69 0
66 69 0
67 69 0
-70 0
-61 69 -71 0
61 -69 -71 0
71 -69 -61 0
61 69 71 0
-4 -71 0
63 -72 -73 0
72 -63 -73 0
-63 -72 73 0
63 72 73 0
-1 -73 0
72 -66 -74 0
66 -72 -74 0
74 -72 -66 0
74 72 66 0
-2 74 0
-63 75 0
-66 75 0
-67 75 0
63 66 67 -75 0
72 -75 -76 0
-72 75 -76 0
-72 -75 76 0
72 75 76 0
-3 76 0
63 77 0
66 77 0
67 77 0
-63 -66 -67 -77 0
-72 77 -78 0
72 -77 -78 0
78 -77 -72 0
72 77 78 0
-4 -78 0
66 -79 -80 0
79 -66 -80 0
-66 -79 80 0
66 79 80 0
-1 -80 0
79 -67 -81 0
67 -79 -81 0
81 -79 -67 0
81 79 67 0
-2 81 0
-66 82 0
-67 82 0
66 67 -82 0
79 -82 -83 0
-79 82 -83 0
-79 -82 83 0
79 82 83 0
-3 83 0
66 84 0
67 84 0
-66 -67 -84 0
-79 84 -85 0
79 -84 -85 0
85 -84 -79 0
79 84 85 0
-4 -85 0
67 -86 -87 0
86 -67 -87 0
-67 -86 87 0
67 86 87 0
-1 -87 0
-66 86 -88 0
66 -86 -88 0
88 -86 -66 0
88 86 66 0
-2 88 0
-67 89 0
-79 89 0
67 79 -89 0
86 -89 -90 0
-86 89 -90 0
-86 -89 90 0
86 89 90 0
-3 90 0
67 91 0
79 91 0
-67 -79 -91 0
-86 91 -92 0
86 -91 -92 0
92 -91 -86 0
86 91 92 0
-4 -92 0
93 -94 -95 0
94 -93 -95 0
-93 -94 95 0
94 93 95 0
-1 -95 0
94 -96 -97 0
96 -94 -97 0
97 -94 -96 0
97 94 96 0
-2 97 0
-93 98 0
-96 98 0
-99 98 0
-100 98 0
-101 98 0
-102 98 0
-103 98 0
-104 98 0
105 0
94 -98 -106 0
-94 98 -106 0
-94 -98 106 0
94 98 106 0
-3 106 0
93 107 0
96 107 0
99 107 0
100 107 0
101 107 0
102 107 0
103 107 0
104 107 0
-108 0
-94 107 -109 0
94 -107 -109 0
109 -107 -94 0
94 107 109 0
-4 -109 0
96 -110 -111 0
110 -96 -111 0
-96 -110 111 0
96 110 111 0
-1 -111 0
110 -99 -112 0
99 -110 -112 0
112 -110 -99 0
112 110 99 0
-2 112 0
-96 113 0
-99 113 0
-100 113 0
-101 113 0
-102 113 0
-103 113 0
-104 113 0
114 0
110 -113 -115 0
-110 113 -115 0
-110 -113 115 0
110 113 115 0
-3 115 0
96 116 0
99 116 0
100 116 0
101 116 0
102 116 0
103 116 0
104 116 0
-117 0
-110 116 -118 0
110 -116 -118 0
118 -116 -110 0
110 116 118 0
-4 -118 0
99 -119 -120 0
119 -99 -120 0
-99 -119 120 0
99 119 120 0
-1 -120 0
119 -100 -121 0
100 -119 -121 0
121 -119 -100 0
121 119 100 0
-2 121 0
-99 122 0
-100 122 0
-101 122 0
-102 122 0
-103 122 0
-104 122 0
123 0
119 -122 -124 0
-119 122 -124 0
-119 -122 124 0
119 122 124 0
-3 124 0
99 125 0
100 125 0
101 125 0
102 125 0
103 125 0
104 125 0
-126 0
-119 125 -127 0
119 -125 -127 0
127 -125 -119 0
119 125 127 0
-4 -127 0
100 -128 -129 0
128 -100 -129 0
-100 -128 129 0
100 128 129 0
-1 -129 0
128 -101 -130 0
101 -128 -130 0
130 -128 -101 0
130 128 101 0
-2 130 0
-100 131 0
-101 131 0
-102 131 0
-103 131 0
-104 131 0
100 101 102 103 104 -131 0
128 -131 -132 0
-128 131 -132 0
-128 -131 132 0
128 131 132 0
-3 132 0
100 133 0
101 133 0
102 133 0
103 133 0
104 133 0
-134 0
-128 133 -135 0
128 -133 -135 0
135 -133 -128 0
128 133 135 0
-4 -135 0
101 -136 -137 0
136 -101 -137 0
-101 -136 137 0
101 136 137 0
-1 -137 0
136 -102 -138 0
102 -136 -138 0
138 -136 -102 0
138 136 102 0
-2 138 0
-101 139 0
-102 139 0
-103 139 0
-104 139 0
101 102 103 104 -139 0
136 -139 -140 0
-136 139 -140 0
-136 -139 140 0
136 139 140 0
-3 140 0
101 141 0
102 141 0
103 141 0
104 141 0
-142 0
-136 141 -143 0
136 -141 -143 0
143 -141 -136 0
136 141 143 0
-4 -143 0
102 -144 -145 0
144 -102 -145 0
-102 -144 145 0
102 144 145 0
-1 -145 0
144 -103 -146 0
103 -144 -146 0
146 -144 -103 0
146 144 103 0
-2 146 0
144 -139 -147 0
139 -144 -147 0
-139 -144 147 0
144 139 147 0
-3 147 0
141 -144 -148 0
144 -141 -148 0
148 -141 -144 0
144 141 148 0
-4 -148 0
103 -149 -150 0
149 -103 -150 0
-103 -149 150 0
103 149 150 0
-1 -150 0
149 -104 -151 0
104 -149 -151 0
151 -149 -104 0
151 149 104 0
-2 151 0
149 -139 -152 0
139 -149 -152 0
-139 -149 152 0
149 139 152 0
-3 152 0
141 -149 -153 0
149 -141 -153 0
153 -141 -149 0
149 141 153 0
-4 -153 0
104 -154 -155 0
154 -104 -155 0
-104 -154 155 0
104 154 155 0
-1 -155 0
-101 154 -156 0
101 -154 -156 0
156 -154 -101 0
156 154 101 0
-2 156 0
-104 157 0
-136 157 0
104 136 -157 0
154 -157 -158 0
-154 157 -158 0
-154 -157 158 0
154 157 158 0
-3 158 0
104 159 0
136 159 0
-104 -136 -159 0
-154 159 -160 0
154 -159 -160 0
160 -159 -154 0
154 159 160 0
-4 -160 0
161 -162 -163 0
162 -161 -163 0
-161 -162 163 0
162 161 163 0
-1 -163 0
162 -164 -165 0
164 -162 -165 0
165 -162 -164 0
165 162 164 0
-2 165 0
-101 166 0
-102 166 0
-103 166 0
-104 166 0
-161 166 0
-164 166 0
167 0
162 -166 -168 0
-162 166 -168 0
-162 -166 168 0
162 166 168 0
-3 168 0
101 169 0
102 169 0
103 169 0
104 169 0
161 169 0
164 169 0
-170 0
-162 169 -171 0
162 -169 -171 0
171 -169 -162 0
162 169 171 0
-4 -171 0
164 -172 -173 0
172 -164 -173 0
-164 -172 173 0
164 172 173 0
-1 -173 0
-102 172 -174 0
102 -172 -174 0
174 -172 -102 0
174 172 102 0
-2 174 0
-101 175 0
-102 175 0
-103 175 0
-104 175 0
-164 175 0
101 102 103 104 164 -175 0
172 -175 -176 0
-172 175 -176 0
-172 -175 176 0
172 175 176 0
-3 176 0
101 177 0
102 177 0
103 177 0
104 177 0
164 177 0
-178 0
-172 177 -179 0
172 -177 -179 0
179 -177 -172 0
172 177 179 0
-4 -179 0
180 -181 -182 0
181 -180 -182 0
-180 -181 182 0
181 180 182 0
-1 -182 0
181 -183 -184 0
183 -181 -184 0
184 -181 -183 0
184 181 183 0
-2 184 0
-180 185 0
-183 185 0
-186 185 0
-187 185 0
-188 185 0
-189 185 0
-190 185 0
191 0
181 -185 -192 0
-181 185 -192 0
-181 -185 192 0
181 185 192 0
-3 192 0
180 193 0
183 193 0
186 193 0
187 193 0
188 193 0
189 193 0
190 193 0
-194 0
-181 193 -195 0
181 -193 -195 0
195 -193 -181 0
181 193 195 0
-4 -195 0
183 -196 -197 0
196 -183 -197 0
-183 -196 197 0
183 196 197 0
-1 -197 0
196 -186 -198 0
186 -196 -198 0
198 -196 -186 0
198 196 186 0
-2 198 0
-183 199 0
-186 199 0
-187 199 0
-188 199 0
-189 199 0
-190 199 0
200 0
196 -199 -201 0
-196 199 -201 0
-196 -199 201 0
196 199 201 0
-3 201 0
183 202 0
186 202 0
187 202 0
188 202 0
189 202 0
190 202 0
-203 0
-196 202 -204 0
196 -202 -204 0
204 -202 -196 0
196 202 204 0
-4 -204 0
186 -205 -206 0
205 -186 -206 0
-186 -205 206 0
186 205 206 0
-1 -206 0
205 -187 -207 0
187 -205 -207 0
207 -205 -187 0
207 205 187 0
-2 207 0
-186 208 0
-187 208 0
-188 208 0
-189 208 0
-190 208 0
186 187 188 189 190 -208 0
205 -208 -209 0
-205 208 -209 0
-205 -208 209 0
205 208 209 0
-3 209 0
186 210 0
187 210 0
188 210 0
189 210 0
190 210 0
-211 0
-205 210 -212 0
205 -210 -212 0
212 -210 -205 0
205 210 212 0
-4 -212 0
187 -213 -214 0
213 -187 -214 0
-187 -213 214 0
187 213 214 0
-1 -214 0
213 -188 -215 0
188 -213 -215 0
215 -213 -188 0
215 213 188 0
-2 215 0
-187 216 0
-188 216 0
-189 216 0
-190 216 0
187 188 189 190 -216 0
213 -216 -217 0
-213 216 -217 0
-213 -216 217 0
213 216 217 0
-3 217 0
187 218 0
188 218 0
189 218 0
190 218 0
-219 0
-213 218 -220 0
213 -218 -220 0
220 -218 -213 0
213 218 220 0
-4 -220 0
188 -221 -222 0
221 -188 -222 0
-188 -221 222 0
188 221 222 0
-1 -222 0
221 -189 -223 0
189 -221 -223 0
223 -221 -189 0
223 221 189 0
-2 223 0
221 -216 -224 0
216 -221 -224 0
-216 -221 224 0
221 216 224 0
-3 224 0
218 -221 -225 0
221 -218 -225 0
225 -218 -221 0
221 218 225 0
-4 -225 0
189 -226 -227 0
226 -189 -227 0
-189 -226 227 0
189 226 227 0
-1 -227 0
226 -190 -228 0
190 -226 -228 0
228 -226 -190 0
228 226 190 0
-2 228 0
226 -216 -229 0
216 -226 -229 0
-216 -226 229 0
226 216 229 0
-3 229 0
218 -226 -230 0
226 -218 -230 0
230 -218 -226 0
226 218 230 0
-4 -230 0
190 -231 -232 0
231 -190 -232 0
-190 -231 232 0
190 231 232 0
-1 -232 0
-187 231 -233 0
187 -231 -233 0
233 -231 -187 0
233 231 187 0
-2 233 0
-190 234 0
-213 234 0
190 213 -234 0
231 -234 -235 0
-231 234 -235 0
-231 -234 235 0
231 234 235 0
-3 235 0
190 236 0
213 236 0
-190 -213 -236 0
-231 236 -237 0
231 -236 -237 0
237 -236 -231 0
231 236 237 0
-4 -237 0
238 -239 -240 0
239 -238 -240 0
-238 -239 240 0
239 238 240 0
-1 -240 0
239 -241 -242 0
241 -239 -242 0
242 -239 -241 0
242 239 241 0
-2 242 0
-238 243 0
-241 243 0
238 241 -243 0
239 -243 -244 0
-239 243 -244 0
-239 -243 244 0
239 243 244 0
-3 244 0
238 245 0
241 245 0
-238 -241 -245 0
-239 245 -246 0
239 -245 -246 0
246 -245 -239 0
239 245 246 0
-4 -246 0
241 -247 -248 0
247 -241 -248 0
-241 -247 248 0
241 247 248 0
-1 -248 0
247 -241 -249 0
241 -247 -249 0
249 -247 -241 0
249 247 241 0
-2 249 0
-241 250 0
-247 250 0
241 247 -250 0
247 -250 -251 0
-247 250 -251 0
-247 -250 251 0
247 250 251 0
-3 251 0
241 252 0
247 252 0
-241 -247 -252 0
-247 252 -253 0
247 -252 -253 0
253 -252 -247 0
247 252 253 0
-4 -253 0
254 -255 -256 0
255 -254 -256 0
-254 -255 256 0
255 254 256 0
-1 -256 0
-161 255 -257 0
161 -255 -257 0
257 -255 -161 0
257 255 161 0
-2 257 0
-101 258 0
-102 258 0
-103 258 0
-104 258 0
-161 258 0
-164 258 0
-254 258 0
259 0
255 -258 -260 0
-255 258 -260 0
-255 -258 260 0
255 258 260 0
-3 260 0
101 261 0
102 261 0
103 261 0
104 261 0
161 261 0
164 261 0
254 261 0
-262 0
-255 261 -263 0
255 -261 -263 0
263 -261 -255 0
255 261 263 0
-4 -263 0
264 -265 -266 0
265 -264 -266 0
-264 -265 266 0
265 264 266 0
-1 -266 0
265 -267 -268 0
267 -265 -268 0
268 -265 -267 0
268 265 267 0
-2 268 0
-238 269 0
-241 269 0
-264 269 0
-267 269 0
238 241 264 267 -269 0
265 -269 -270 0
-265 269 -270 0
-265 -269 270 0
265 269 270 0
-3 270 0
238 271 0
241 271 0
264 271 0
267 271 0
-272 0
-265 271 -273 0
265 -271 -273 0
273 -271 -265 0
265 271 273 0
-4 -273 0
267 -274 -275 0
274 -267 -275 0
-267 -274 275 0
267 274 275 0
-1 -275 0
-238 274 -276 0
238 -274 -276 0
276 -274 -238 0
276 274 238 0
-2 276 0
-238 277 0
-241 277 0
-267 277 0
238 241 267 -277 0
274 -277 -278 0
-274 277 -278 0
-274 -277 278 0
274 277 278 0
-3 278 0
238 279 0
241 279 0
267 279 0
-238 -241 -267 -279 0
-274 279 -280 0
274 -279 -280 0
280 -279 -274 0
274 279 280 0
-4 -280 0
281 -282 -283 0
282 -281 -283 0
-281 -282 283 0
282 281 283 0
-1 -283 0
282 -284 -285 0
284 -282 -285 0
285 -282 -284 0
285 282 284 0
-2 285 0
-187 286 0
-188 286 0
-189 286 0
-190 286 0
-281 286 0
-284 286 0
287 0
282 -286 -288 0
-282 286 -288 0
-282 -286 288 0
282 286 288 0
-3 288 0
187 289 0
188 289 0
189 289 0
190 289 0
281 289 0
284 289 0
-290 0
-282 289 -291 0
282 -289 -291 0
291 -289 -282 0
282 289 291 0
-4 -291 0
284 -292 -293 0
292 -284 -293 0
-284 -292 293 0
284 292 293 0
-1 -293 0
-188 292 -294 0
188 -292 -294 0
294 -292 -188 0
294 292 188 0
-2 294 0
-187 295 0
-188 295 0
-189 295 0
-190 295 0
-284 295 0
187 188 189 190 284 -295 0
292 -295 -296 0
-292 295 -296 0
-292 -295 296 0
292 295 296 0
-3 296 0
187 297 0
188 297 0
189 297 0
190 297 0
284 297 0
-298 0
-292 297 -299 0
292 -297 -299 0
299 -297 -292 0
292 297 299 0
-4 -299 0
300 -301 -302 0
301 -300 -302 0
-300 -301 302 0
301 300 302 0
-1 -302 0
-60 301 -303 0
60 -301 -303 0
303 -301 -60 0
303 301 60 0
-2 303 0
-60 304 0
-63 304 0
-66 304 0
-67 304 0
-300 304 0
60 63 66 67 300 -304 0
301 -304 -305 0
-301 304 -305 0
-301 -304 305 0
301 304 305 0
-3 305 0
60 306 0
63 306 0
66 306 0
67 306 0
300 306 0
-307 0
-301 306 -308 0
301 -306 -308 0
308 -306 -301 0
301 306 308 0
-4 -308 0
309 -310 -311 0
310 -309 -311 0
-309 -310 311 0
310 309 311 0
-1 -311 0
-103 310 -312 0
103 -310 -312 0
312 -310 -103 0
312 310 103 0
-2 312 0
-101 313 0
-102 313 0
-103 313 0
-104 313 0
-309 313 0
101 102 103 104 309 -313 0
310 -313 -314 0
-310 313 -314 0
-310 -313 314 0
310 313 314 0
-3 314 0
101 315 0
102 315 0
103 315 0
104 315 0
309 315 0
-316 0
-310 315 -317 0
310 -315 -317 0
317 -315 -310 0
310 315 317 0
-4 -317 0
318 -319 -320 0
319 -318 -320 0
-318 -319 320 0
319 318 320 0
-1 -320 0
319 -321 -322 0
321 -319 -322 0
322 -319 -321 0
322 319 321 0
-2 322 0
-101 323 0
-102 323 0
-103 323 0
-104 323 0
-164 323 0
-318 323 0
-321 323 0
324 0
319 -323 -325 0
-319 323 -325 0
-319 -323 325 0
319 323 325 0
-3 325 0
101 326 0
102 326 0
103 326 0
104 326 0
164 326 0
318 326 0
321 326 0
-327 0
-319 326 -328 0
319 -326 -328 0
328 -326 -319 0
319 326 328 0
-4 -328 0
321 -329 -330 0
329 -321 -330 0
-321 -329 330 0
321 329 330 0
-1 -330 0
-164 329 -331 0
164 -329 -331 0
331 -329 -164 0
331 329 164 0
-2 331 0
-101 332 0
-102 332 0
-103 332 0
-104 332 0
-164 332 0
-321 332 0
333 0
329 -332 -334 0
-329 332 -334 0
-329 -332 334 0
329 332 334 0
-3 334 0
101 335 0
102 335 0
103 335 0
104 335 0
164 335 0
321 335 0
-336 0
-329 335 -337 0
329 -335 -337 0
337 -335 -329 0
329 335 337 0
-4 -337 0
338 -339 -340 0
339 -338 -340 0
-338 -339 340 0
339 338 340 0
-1 -340 0
339 -341 -342 0
341 -339 -342 0
342 -339 -341 0
342 339 341 0
-2 342 0
-29 343 0
-32 343 0
-35 343 0
-51 343 0
-338 343 0
-341 343 0
-344 343 0
345 0
339 -343 -346 0
-339 343 -346 0
-339 -343 346 0
339 343 346 0
-3 346 0
29 347 0
32 347 0
35 347 0
51 347 0
338 347 0
341 347 0
344 347 0
-348 0
-339 347 -349 0
339 -347 -349 0
349 -347 -339 0
339 347 349 0
-4 -349 0
341 -350 -351 0
350 -341 -351 0
-341 -350 351 0
341 350 351 0
-1 -351 0
350 -344 -352 0
344 -350 -352 0
352 -350 -344 0
352 350 344 0
-2 352 0
-29 353 0
-32 353 0
-35 353 0
-51 353 0
-341 353 0
-344 353 0
29 32 35 51 341 344 -353 0
350 -353 -354 0
-350 353 -354 0
-350 -353 354 0
350 353 354 0
-3 354 0
29 355 0
32 355 0
35 355 0
51 355 0
341 355 0
344 355 0
-356 0
-350 355 -357 0
350 -355 -357 0
357 -355 -350 0
350 355 357 0
-4 -357 0
344 -358 -359 0
358 -344 -359 0
-344 -358 359 0
344 358 359 0
-1 -359 0
-51 358 -360 0
51 -358 -360 0
360 -358 -51 0
360 358 51 0
-2 360 0
-29 361 0
-32 361 0
-35 361 0
-51 361 0
-344 361 0
29 32 35 51 344 -361 0
358 -361 -362 0
-358 361 -362 0
-358 -361 362 0
358 361 362 0
-3 362 0
29 363 0
32 363 0
35 363 0
51 363 0
344 363 0
-364 0
-358 363 -365 0
358 -363 -365 0
365 -363 -358 0
358 363 365 0
-4 -365 0
366 -367 -368 0
367 -366 -368 0
-366 -367 368 0
367 366 368 0
-1 -368 0
-63 367 -369 0
63 -367 -369 0
369 -367 -63 0
369 367 63 0
-2 369 0
-63 370 0
-66 370 0
-67 370 0
-366 370 0
63 66 67 366 -370 0
367 -370 -371 0
-367 370 -371 0
-367 -370 371 0
367 370 371 0
-3 371 0
63 372 0
66 372 0
67 372 0
366 372 0
-373 0
-367 372 -374 0
367 -372 -374 0
374 -372 -367 0
367 372 374 0
-4 -374 0
375 -376 -377 0
376 -375 -377 0
-375 -376 377 0
376 375 377 0
-1 -377 0
376 -378 -379 0
378 -376 -379 0
379 -376 -378 0
379 376 378 0
-2 379 0
-375 380 0
-378 380 0
-381 380 0
-382 380 0
-383 380 0
-384 380 0
-385 380 0
386 0
376 -380 -387 0
-376 380 -387 0
-376 -380 387 0
376 380 387 0
-3 387 0
375 388 0
378 388 0
381 388 0
382 388 0
383 388 0
384 388 0
385 388 0
-389 0
-376 388 -390 0
376 -388 -390 0
390 -388 -376 0
376 388 390 0
-4 -390 0
378 -391 -392 0
391 -378 -392 0
-378 -391 392 0
378 391 392 0
-1 -392 0
391 -381 -393 0
381 -391 -393 0
393 -391 -381 0
393 391 381 0
-2 393 0
-378 394 0
-381 394 0
-382 394 0
-383 394 0
-384 394 0
-385 394 0
395 0
391 -394 -396 0
-391 394 -396 0
-391 -394 396 0
391 394 396 0
-3 396 0
378 397 0
381 397 0
382 397 0
383 397 0
384 397 0
385 397 0
-398 0
-391 397 -399 0
391 -397 -399 0
399 -397 -391 0
391 397 399 0
-4 -399 0
381 -400 -401 0
400 -381 -401 0
-381 -400 401 0
381 400 401 0
-1 -401 0
400 -382 -402 0
382 -400 -402 0
402 -400 -382 0
402 400 382 0
-2 402 0
-381 403 0
-382 403 0
-383 403 0
-384 403 0
-385 403 0
381 382 383 384 385 -403 0
400 -403 -404 0
-400 403 -404 0
-400 -403 404 0
400 403 404 0
-3 404 0
381 405 0
382 405 0
383 405 0
384 405 0
385 405 0
-406 0
-400 405 -407 0
400 -405 -407 0
407 -405 -400 0
400 405 407 0
-4 -407 0
382 -408 -409 0
408 -382 -409 0
-382 -408 409 0
382 408 409 0
-1 -409 0
408 -383 -410 0
383 -408 -410 0
410 -408 -383 0
410 408 383 0
-2 410 0
-382 411 0
-383 411 0
-384 411 0
-385 411 0
382 383 384 385 -411 0
408 -411 -412 0
-408 411 -412 0
-408 -411 412 0
408 411 412 0
-3 412 0
382 413 0
383 413 0
384 413 0
385 413 0
-414 0
-408 413 -415 0
408 -413 -415 0
415 -413 -408 0
408 413 415 0
-4 -415 0
383 -416 -417 0
416 -383 -417 0
-383 -416 417 0
383 416 417 0
-1 -417 0
416 -384 -418 0
384 -416 -418 0
418 -416 -384 0
418 416 384 0
-2 418 0
-383 419 0
-384 419 0
-385 419 0
383 384 385 -419 0
416 -419 -420 0
-416 419 -420 0
-416 -419 420 0
416 419 420 0
-3 420 0
383 421 0
384 421 0
385 421 0
-383 -384 -385 -421 0
-416 421 -422 0
416 -421 -422 0
422 -421 -416 0
416 421 422 0
-4 -422 0
384 -423 -424 0
423 -384 -424 0
-384 -423 424 0
384 423 424 0
-1 -424 0
423 -385 -425 0
385 -423 -425 0
425 -423 -385 0
425 423 385 0
-2 425 0
423 -419 -426 0
419 -423 -426 0
-419 -423 426 0
423 419 426 0
-3 426 0
421 -423 -427 0
423 -421 -427 0
427 -421 -423 0
423 421 427 0
-4 -427 0
385 -428 -429 0
428 -385 -429 0
-385 -428 429 0
385 428 429 0
-1 -429 0
-383 428 -430 0
383 -428 -430 0
430 -428 -383 0
430 428 383 0
-2 430 0
-385 431 0
-416 431 0
385 416 -431 0
428 -431 -432 0
-428 431 -432 0
-428 -431 432 0
428 431 432 0
-3 432 0
385 433 0
416 433 0
-385 -416 -433 0
-428 433 -434 0
428 -433 -434 0
434 -433 -428 0
428 433 434 0
-4 -434 0
435 -436 -437 0
436 -435 -437 0
-435 -436 437 0
436 435 437 0
-1 -437 0
436 -438 -439 0
438 -436 -439 0
439 -436 -438 0
439 436 438 0
-2 439 0
-383 440 0
-384 440 0
-385 440 0
-435 440 0
-438 440 0
383 384 385 435 438 -440 0
436 -440 -441 0
-436 440 -441 0
-436 -440 441 0
436 440 441 0
-3 441 0
383 442 0
384 442 0
385 442 0
435 442 0
438 442 0
-443 0
-436 442 -444 0
436 -442 -444 0
444 -442 -436 0
436 442 444 0
-4 -444 0
438 -445 -446 0
445 -438 -446 0
-438 -445 446 0
438 445 446 0
-1 -446 0
-384 445 -447 0
384 -445 -447 0
447 -445 -384 0
447 445 384 0
-2 447 0
-383 448 0
-384 448 0
-385 448 0
-438 448 0
383 384 385 438 -448 0
445 -448 -449 0
-445 448 -449 0
-445 -448 449 0
445 448 449 0
-3 449 0
383 450 0
384 450 0
385 450 0
438 450 0
-451 0
-445 450 -452 0
445 -450 -452 0
452 -450 -445 0
445 450 452 0
-4 -452 0
6 0
-14 0
-30 0
-52 0
-61 0
-79 0
-94 0
-162 0
-181 0
-239 0
-247 0
-255 0
-265 0
-282 0
-301 0
-310 0
-319 0
-339 0
-350 0
-367 0
-376 0
-436 0
